Route #1: 59 50 150 45 152 136 72 25 98 47 76 41 61 8 54
Route #2: 42 65 69 46 127 92 74 81 91 28 26 145 90 86 53 80
Route #3: 51 12 3 33 68 11 48 23 120 158 108 125 115 156 155
Route #4: 141 119 146 39 137 6 49 24 73 38 58 130 44 75
Route #5: 105 144 135 101 151 5 37 71 13 99 140 18 19 7 34
Route #6: 64 22 20 111 154 16 32 4 87 126 17 139 10 29
Route #7: 52 116 114 62 67 79 78 83 161 77 149 133 138 15 57 131
Route #8: 88 96 129 102 70 113 63 104 97 89 14 107 122 84
Route #9: 143 160 153 128 110 85 121 147 31 106 100 36 94 66 95
Route #10: 9 21 1 55 60 124 134 148 109 159 35 56 123 43 142
Route #11: 117 27 2 82 118 30 40 157 112 132 93 103
Cost 24974
